(set-info :origin "driver benchmark extracted from Microsoft SDV")
(set-logic HORN)
(declare-fun Proc32 (Int Int Int Int Int Bool) Bool)
(declare-fun Proc12
             (Int Int Int Int Int Bool Int Int Int Int Bool Int Int)
             Bool)
(declare-fun Proc30 (Int Int Int Int Int Bool Int Int Int Int Int) Bool)
(declare-fun Proc19 (Int Int Int Int Int Bool Int) Bool)
(declare-fun Proc26 (Int Int Int Int Int Bool Int) Bool)
(declare-fun Proc8 (Int Int Int Int Int Bool Int) Bool)
(declare-fun Proc27 (Int Int Int Int Int Bool) Bool)
(declare-fun Proc31 (Int Int Int Int Int Bool) Bool)
(declare-fun Proc21 (Int Int Int Int Int Bool Int) Bool)
(declare-fun Proc9 (Int Int Int Int Int Bool Int Int) Bool)
(declare-fun Proc28 (Int Int Int Int Int Bool Int Int) Bool)
(declare-fun Proc4 (Int Int Int Int Int Bool Int Int Int Int Int) Bool)
(declare-fun Proc24 (Int Int Int Int Int Bool Int) Bool)
(declare-fun Proc11 (Int Int Int Int Int Bool Int Int) Bool)
(declare-fun Proc33 (Int Int Int Int Int Bool Int Int) Bool)
(declare-fun Proc14 (Int Int Int Int Int Bool Int) Bool)
(declare-fun Proc13 (Int Int Int Int Int Bool Int) Bool)
(declare-fun Proc18 (Int Int Int Int Int Bool Int) Bool)
(declare-fun Proc34 (Int Int Int Int Int Bool) Bool)
(declare-fun Proc20 (Int Int Int Int Int Bool Int) Bool)
(declare-fun Proc10 (Int Int Int Int Int Bool Int Int) Bool)
(declare-fun Proc17 (Int Int Int Int Int Bool Int) Bool)
(declare-fun Proc3 (Int Int Int Int Int Bool Int Int Int Int) Bool)
(declare-fun Proc5 (Int Int Int Int Int Bool Int Int) Bool)
(declare-fun Proc15 (Int Int Int Int Int Bool Int) Bool)
(declare-fun Proc1 (Int Int Int Int Int Bool Int) Bool)
(declare-fun Proc2 (Int Int Int Int Int Bool Int Int Int) Bool)
(declare-fun Proc25 (Int Int Int Int Int Bool Int) Bool)
(declare-fun Proc0 (Int Int Int Int Int Bool Int) Bool)
(declare-fun Proc7 (Int Int Int Int Int Bool) Bool)
(declare-fun Proc16 (Int Int Int Int Int Bool Int) Bool)
(declare-fun Proc35
             (Int Int Int Int Int Bool Int Bool Int Int Int Int Int)
             Bool)
(declare-fun Proc6 (Int Int Int Int Int Bool Int Int Int Int) Bool)
(declare-fun Proc29 (Int Int Int Int Int Bool Int) Bool)
(declare-fun Proc23 (Int Int Int Int Int Bool Int) Bool)
(declare-fun Proc22 (Int Int Int Int Int Bool Int) Bool)
(assert (forall ((A Int)
         (B Int)
         (C Int)
         (D Int)
         (E Int)
         (F Int)
         (G Int)
         (H Int)
         (I Int)
         (J Int)
         (K Int)
         (L Int)
         (M Int)
         (N Int)
         (O Int)
         (P Int)
         (Q Int)
         (R Bool))
  (let ((a!1 (and (not (<= F (+ 1 G))) (not (<= F Q))))
        (a!2 (not (and (= C H) (= B E) (= A D)))))
  (let ((a!3 (and (or (not (= D 1)) a!2) (or (= D 1) a!2))))
  (let ((a!4 (not (or (not R)
                      (not (Proc0 Q P O N M R L))
                      (not (Proc1 Q P O N M R L))
                      (= K 0)
                      (= J 0)
                      (not (Proc2 Q P O N M R I L H))
                      (not (= G Q))
                      (not a!1)
                      (not (Proc3 F P O N M R G H E D))
                      a!3))))
    (=> a!4 (Proc4 Q P O N M R K L C B A)))))))
(assert (forall ((A Int)
         (B Int)
         (C Int)
         (D Int)
         (E Int)
         (F Int)
         (G Int)
         (H Int)
         (R Bool))
  (let ((a!1 (not (or (not R) (= H 0) (not (= G 259))))))
    (=> a!1 (Proc2 F E D C B R A H G)))))
(assert (forall ((A Int) (B Int) (C Int) (D Int) (E Int) (F Int) (R Bool))
  (=> R (Proc0 F E D C B R A))))
(assert (forall ((A Int)
         (B Int)
         (C Int)
         (D Int)
         (E Int)
         (F Int)
         (G Int)
         (H Int)
         (I Int)
         (J Int)
         (K Int)
         (L Int)
         (R Bool))
  (let ((a!1 (and (not (<= J (+ 1 L))) (not (<= J K)))))
  (let ((a!2 (or (not R)
                 (not (= L K))
                 (not a!1)
                 (not (Proc5 J I H G F R L E))
                 (not (and (= D J) (= C E))))))
    (=> (not a!2) (Proc6 K I H G F R B A D C))))))
(assert (forall ((A Int) (B Int) (C Int) (D Int) (E Int) (F Int) (G Int) (R Bool))
  (let ((a!1 (not (or (not R) (not (= G 1))))))
    (=> a!1 (Proc5 F E D C B R A G)))))
(assert (forall ((A Int)
         (B Int)
         (C Int)
         (D Int)
         (E Int)
         (F Int)
         (G Int)
         (H Int)
         (I Int)
         (J Int)
         (K Int)
         (L Int)
         (M Int)
         (R Bool))
  (let ((a!1 (or (= M 259)
                 (not (and (= L K) (= J I)))
                 (not (and (= H J) (= G L)))))
        (a!2 (or (not (= A 1))
                 (not (and (= L A) (= J B)))
                 (not (and (= H J) (= G L)))))
        (a!3 (or (= A 1)
                 (not (and (= L A) (= J B)))
                 (not (and (= H J) (= G L)))))
        (a!4 (or (not (= F 0))
                 (not (and (= L K) (= J I)))
                 (not (and (= H J) (= G L))))))
  (let ((a!5 (and (or (= F 0) (not (Proc6 I F E D K R C M B A)) (and a!2 a!3))
                  a!4)))
  (let ((a!6 (and a!1 (or (not (= M 259)) a!5))))
    (=> (not (or (not R) a!6)) (Proc3 I F E D K R C M H G)))))))
(assert (forall ((A Int) (B Int) (C Int) (D Int) (E Int) (R Bool))
  (=> R (Proc7 E D C B A R))))
(assert (forall ((A Int) (B Int) (C Int) (D Int) (E Int) (F Int) (R Bool))
  (let ((a!1 (not (or (not R) (not (= F E))))))
    (=> a!1 (Proc8 D C B E A R F)))))
(assert (forall ((A Int) (B Int) (C Int) (D Int) (E Int) (F Int) (G Int) (R Bool))
  (let ((a!1 (or (not R) (not (and (= G 0) (= F 0))))))
    (=> (not a!1) (Proc9 E D C B A R G F)))))
(assert (forall ((A Int)
         (B Int)
         (C Int)
         (D Int)
         (E Int)
         (F Int)
         (G Int)
         (H Int)
         (I Int)
         (J Int)
         (K Int)
         (L Int)
         (M Int)
         (N Int)
         (O Int)
         (P Int)
         (Q Int)
         (R Bool)
         (S Bool)
         (T Bool)
         (U Int)
         (V Int)
         (W Int)
         (X Int)
         (Y Bool))
  (let ((a!1 (not (and (not (<= X 0)) (Proc10 X W V U Q Y P O))))
        (a!2 (not (and (= G I) (= F N) (= E J) (= D L) (= S T) (= C K) (= B O)))))
  (let ((a!3 (or (= J 0) (not (and (= I H) (not T))) a!2))
        (a!4 (or (not (and (= J 0) (= R Y))) (not (and (= I A) (= T R))) a!2)))
  (let ((a!5 (and (or (= J 1) (and a!3 a!4)) (or (not (= J 1)) (and a!3 a!4)))))
  (let ((a!6 (not (or (not Y)
                      a!1
                      (not (Proc9 P W V O Q Y N M))
                      (not (Proc8 P N V O M Y L))
                      (not (Proc7 P N L O M Y))
                      (= L 0)
                      (not (Proc11 P N L O M Y K J))
                      a!5))))
    (=> a!6 (Proc12 X W V U Q Y G F E D S C B))))))))
(assert (forall ((A Int) (B Int) (C Int) (D Int) (E Int) (F Int) (R Bool))
  (let ((a!1 (not (or (not R) (not (= F 1))))))
    (=> a!1 (Proc13 E D C B A R F)))))
(assert (forall ((A Int) (B Int) (C Int) (D Int) (E Int) (F Int) (R Bool))
  (let ((a!1 (not (or (not R) (not (= F 0))))))
    (=> a!1 (Proc14 E D C B A R F)))))
(assert (forall ((A Int) (B Int) (C Int) (D Int) (E Int) (F Int) (R Bool))
  (let ((a!1 (not (or (not R) (not (= F 1))))))
    (=> a!1 (Proc15 E D C B A R F)))))
(assert (forall ((A Int) (B Int) (C Int) (D Int) (E Int) (F Int) (R Bool))
  (let ((a!1 (not (or (not R) (not (= F 0))))))
    (=> a!1 (Proc16 E D C B A R F)))))
(assert (forall ((A Int) (B Int) (C Int) (D Int) (E Int) (F Int) (R Bool))
  (let ((a!1 (not (or (not R) (not (= F 1))))))
    (=> a!1 (Proc17 E D C B A R F)))))
(assert (forall ((A Int) (B Int) (C Int) (D Int) (E Int) (F Int) (R Bool))
  (let ((a!1 (not (or (not R) (not (= F 0))))))
    (=> a!1 (Proc18 E D C B A R F)))))
(assert (forall ((A Int) (B Int) (C Int) (D Int) (E Int) (F Int) (R Bool))
  (let ((a!1 (not (or (not R) (not (= F 0))))))
    (=> a!1 (Proc19 E D C B A R F)))))
(assert (forall ((A Int) (B Int) (C Int) (D Int) (E Int) (F Int) (R Bool))
  (let ((a!1 (not (or (not R) (not (= F 1))))))
    (=> a!1 (Proc20 E D C B A R F)))))
(assert (forall ((A Int) (B Int) (C Int) (D Int) (E Int) (F Int) (R Bool))
  (let ((a!1 (not (or (not R) (not (= F 0))))))
    (=> a!1 (Proc21 E D C B A R F)))))
(assert (forall ((A Int) (B Int) (C Int) (D Int) (E Int) (F Int) (R Bool))
  (let ((a!1 (not (or (not R) (not (= F 0))))))
    (=> a!1 (Proc22 E D C B A R F)))))
(assert (forall ((A Int) (B Int) (C Int) (D Int) (E Int) (F Int) (R Bool))
  (let ((a!1 (not (or (not R) (not (= F 0))))))
    (=> a!1 (Proc23 E D C B A R F)))))
(assert (forall ((A Int) (B Int) (C Int) (D Int) (E Int) (F Int) (G Int) (R Bool))
  (let ((a!1 (or (not R) (not (= G (- 1073741823))) (not (= F G)))))
    (=> (not a!1) (Proc24 E D C B A R F)))))
(assert (forall ((A Int) (B Int) (C Int) (D Int) (E Int) (F Int) (R Bool))
  (let ((a!1 (not (or (not R) (not (= F 0))))))
    (=> a!1 (Proc25 E D C B A R F)))))
(assert (forall ((A Int) (B Int) (C Int) (D Int) (E Int) (F Int) (R Bool))
  (=> R (Proc1 F E D C B R A))))
(assert (forall ((A Int)
         (B Int)
         (C Int)
         (D Int)
         (E Int)
         (F Int)
         (G Int)
         (H Int)
         (I Int)
         (J Int)
         (K Int)
         (L Int)
         (M Int)
         (N Int)
         (O Int)
         (P Int)
         (Q Int)
         (R Bool)
         (U Int)
         (V Int)
         (W Int)
         (X Int)
         (Z Int)
         (A1 Int)
         (B1 Int)
         (C1 Int)
         (D1 Int)
         (E1 Int)
         (F1 Int)
         (G1 Int)
         (H1 Int)
         (I1 Int)
         (J1 Int)
         (K1 Int)
         (L1 Int)
         (M1 Int)
         (N1 Int)
         (O1 Int)
         (P1 Int)
         (Q1 Int))
  (let ((a!1 (not (Proc28 G1 O1 N1 M1 H1 R I1 Q1)))
        (a!2 (not (and (= C1 F1) (= B1 D1) (= A1 E1))))
        (a!17 (not (and (not (= G 1)) (= I1 I) (= H1 G) (= G1 H)))))
  (let ((a!3 (or (= K1 0)
                 (not (Proc24 P1 O1 N1 M1 L1 R J1))
                 (not (= I1 J1))
                 (not (and (= H1 L1) (= G1 P1)))
                 a!1
                 (= Q1 0)
                 (not (= F1 I1))
                 (not (and (= E1 H1) (= D1 G1)))
                 a!2))
        (a!4 (or (= K1 0)
                 (not (Proc24 P1 O1 N1 M1 L1 R Z))
                 (not (= I1 Z))
                 (not (and (= H1 L1) (= G1 P1)))
                 a!1
                 (= Q1 0)
                 (not (= F1 I1))
                 (not (and (= E1 H1) (= D1 G1)))
                 a!2))
        (a!5 (or (= K1 0)
                 (not (Proc24 P1 O1 N1 M1 L1 R X))
                 (not (= I1 X))
                 (not (and (= H1 L1) (= G1 P1)))
                 a!1
                 (= Q1 0)
                 (not (= F1 I1))
                 (not (and (= E1 H1) (= D1 G1)))
                 a!2))
        (a!6 (or (= K1 0)
                 (not (Proc24 P1 O1 N1 M1 L1 R W))
                 (not (= I1 W))
                 (not (and (= H1 L1) (= G1 P1)))
                 a!1
                 (= Q1 0)
                 (not (= F1 I1))
                 (not (and (= E1 H1) (= D1 G1)))
                 a!2))
        (a!7 (or (= K1 0)
                 (not (Proc24 P1 O1 N1 M1 L1 R V))
                 (not (= I1 V))
                 (not (and (= H1 L1) (= G1 P1)))
                 a!1
                 (= Q1 0)
                 (not (= F1 I1))
                 (not (and (= E1 H1) (= D1 G1)))
                 a!2))
        (a!8 (or (= K1 0)
                 (not (Proc24 P1 O1 N1 M1 L1 R U))
                 (not (= I1 U))
                 (not (and (= H1 L1) (= G1 P1)))
                 a!1
                 (= Q1 0)
                 (not (= F1 I1))
                 (not (and (= E1 H1) (= D1 G1)))
                 a!2))
        (a!9 (or (= K1 0)
                 (not (Proc24 P1 O1 N1 M1 L1 R Q))
                 (not (= I1 Q))
                 (not (and (= H1 L1) (= G1 P1)))
                 a!1
                 (= Q1 0)
                 (not (= F1 I1))
                 (not (and (= E1 H1) (= D1 G1)))
                 a!2))
        (a!10 (or (not (Proc24 P1 O1 N1 M1 L1 R P))
                  (not (= I1 P))
                  (not (and (= H1 L1) (= G1 P1)))
                  a!1
                  (= Q1 0)
                  (not (= F1 I1))
                  (not (and (= E1 H1) (= D1 G1)))
                  a!2))
        (a!11 (or (= K1 0)
                  (not (Proc24 P1 O1 N1 M1 L1 R O))
                  (not (= I1 O))
                  (not (and (= H1 L1) (= G1 P1)))
                  a!1
                  (= Q1 0)
                  (not (= F1 I1))
                  (not (and (= E1 H1) (= D1 G1)))
                  a!2))
        (a!12 (or (= K1 0)
                  (not (Proc24 P1 O1 N1 M1 L1 R N))
                  (not (= I1 N))
                  (not (and (= H1 L1) (= G1 P1)))
                  a!1
                  (= Q1 0)
                  (not (= F1 I1))
                  (not (and (= E1 H1) (= D1 G1)))
                  a!2))
        (a!13 (or (= K1 0)
                  (not (Proc24 P1 O1 N1 M1 L1 R M))
                  (not (= I1 M))
                  (not (and (= H1 L1) (= G1 P1)))
                  a!1
                  (= Q1 0)
                  (not (= F1 I1))
                  (not (and (= E1 H1) (= D1 G1)))
                  a!2))
        (a!14 (or (not (Proc24 P1 O1 N1 M1 L1 R L))
                  (not (= I1 L))
                  (not (and (= H1 L1) (= G1 P1)))
                  a!1
                  (= Q1 0)
                  (not (= F1 I1))
                  (not (and (= E1 H1) (= D1 G1)))
                  a!2))
        (a!15 (or (= K1 0)
                  (not (Proc24 P1 O1 N1 M1 L1 R K))
                  (not (= I1 K))
                  (not (and (= H1 L1) (= G1 P1)))
                  a!1
                  (= Q1 0)
                  (not (= F1 I1))
                  (not (and (= E1 H1) (= D1 G1)))
                  a!2))
        (a!16 (or (not (and (= G 1) (= F1 F) (= E1 G) (= D1 H))) a!2))
        (a!18 (or a!17
                  a!1
                  (= Q1 0)
                  (not (= F1 I1))
                  (not (and (= E1 H1) (= D1 G1)))
                  a!2))
        (a!19 (or (= K1 0)
                  (not (Proc24 P1 O1 N1 M1 L1 R E))
                  (not (= I1 E))
                  (not (and (= H1 L1) (= G1 P1)))
                  a!1
                  (= Q1 0)
                  (not (= F1 I1))
                  (not (and (= E1 H1) (= D1 G1)))
                  a!2))
        (a!20 (or (not (Proc24 P1 O1 N1 M1 L1 R D))
                  (not (= I1 D))
                  (not (and (= H1 L1) (= G1 P1)))
                  a!1
                  (= Q1 0)
                  (not (= F1 I1))
                  (not (and (= E1 H1) (= D1 G1)))
                  a!2))
        (a!21 (or (= K1 0)
                  (not (Proc24 P1 O1 N1 M1 L1 R C))
                  (not (= I1 C))
                  (not (and (= H1 L1) (= G1 P1)))
                  a!1
                  (= Q1 0)
                  (not (= F1 I1))
                  (not (and (= E1 H1) (= D1 G1)))
                  a!2))
        (a!22 (or (not (= B 1))
                  (= B 0)
                  (= K1 0)
                  (not (Proc24 P1 O1 N1 M1 L1 R C))
                  (not (= I1 C))
                  (not (and (= H1 L1) (= G1 P1)))
                  a!1
                  (= Q1 0)
                  (not (= F1 I1))
                  (not (and (= E1 H1) (= D1 G1)))
                  a!2)))
  (let ((a!23 (and (or (= K1 0) (and a!21 a!22))
                   (or (not (= A 1)) (= A 0) (= K1 0) (and a!21 a!22)))))
  (let ((a!24 (and a!3
                   a!4
                   a!5
                   a!6
                   a!7
                   a!8
                   a!9
                   a!10
                   a!11
                   a!12
                   a!13
                   a!14
                   a!15
                   (or (= K1 0)
                       (not (Proc29 P1 O1 N1 M1 L1 R Q1))
                       (not (Proc4 P1 O1 N1 M1 L1 R J Q1 I H G))
                       (and a!16 a!18))
                   a!19
                   a!20
                   (or (= K1 0) a!23))))
  (let ((a!25 (not (or (not R)
                       (= Q1 0)
                       (not (Proc26 P1 O1 N1 M1 L1 R Q1))
                       (= K1 0)
                       (not (Proc27 P1 O1 N1 M1 L1 R))
                       a!24))))
    (=> a!25 (Proc30 P1 O1 N1 M1 L1 R J Q1 C1 B1 A1)))))))))
(assert (forall ((A Int)
         (B Int)
         (C Int)
         (D Int)
         (E Int)
         (F Int)
         (G Int)
         (H Int)
         (R Bool))
  (let ((a!1 (not (or (not R)
                      (not (Proc31 H G F E D R))
                      (not (Proc24 H G F E D R C))
                      (not (Proc32 H G F E D R))))))
    (=> a!1 (Proc33 H G F E D R B A)))))
(assert (forall ((A Int) (B Int) (C Int) (D Int) (E Int) (F Int) (G Int) (R Bool))
  (=> (not (or (not R) (= G 0) (= F 0))) (Proc29 E D C B A R G))))
(assert (forall ((A Int) (B Int) (C Int) (D Int) (E Int) (F Int) (R Bool))
  (=> (not (or (not R) (= F 0))) (Proc26 E D C B A R F))))
(assert (forall ((A Int)
         (B Int)
         (C Int)
         (D Int)
         (E Int)
         (F Int)
         (G Int)
         (H Int)
         (I Int)
         (J Int)
         (K Int)
         (L Int)
         (M Int)
         (N Int)
         (O Int)
         (P Int)
         (Q Int)
         (R Bool)
         (U Int)
         (V Int)
         (W Int)
         (X Int)
         (Z Int)
         (A1 Int)
         (B1 Int)
         (C1 Int)
         (D1 Int))
  (let ((a!1 (or (not (= F 1))
                 (not (and (= E F) (= D G)))
                 (not (and (= C D) (= B E)))))
        (a!2 (or (= F 1)
                 (not (and (= E F) (= D G)))
                 (not (and (= C D) (= B E)))))
        (a!3 (or (not (= X 0))
                 (not (and (= E Z) (= D D1)))
                 (not (and (= C D) (= B E)))))
        (a!4 (or (= W 0)
                 (not (Proc34 D1 C1 B1 A1 Z R))
                 (not (Proc33 D1 C1 B1 A1 Z R A B1))
                 (not (and (= E Z) (= D D1)))
                 (not (and (= C D) (= B E)))))
        (a!5 (or (not (= W 0))
                 (not (and (= E Z) (= D D1)))
                 (not (and (= C D) (= B E)))))
        (a!6 (or (not (and (= E Z) (= D D1))) (not (and (= C D) (= B E))))))
  (let ((a!7 (and (or (= X 0)
                      (not (Proc34 D1 C1 B1 A1 Z R))
                      (not (Proc30 D1 C1 B1 A1 Z R I B1 H G F))
                      (and a!1 a!2))
                  a!3
                  a!4
                  a!5
                  a!6)))
  (let ((a!8 (not (or (not R)
                      (not (Proc15 D1 C1 B1 A1 Z R X))
                      (not (Proc22 D1 C1 B1 A1 Z R W))
                      (not (Proc16 D1 C1 B1 A1 Z R V))
                      (not (Proc21 D1 C1 B1 A1 Z R U))
                      (not (Proc14 D1 C1 B1 A1 Z R Q))
                      (not (Proc18 D1 C1 B1 A1 Z R P))
                      (not (Proc25 D1 C1 B1 A1 Z R O))
                      (not (Proc23 D1 C1 B1 A1 Z R N))
                      (not (Proc13 D1 C1 B1 A1 Z R M))
                      (not (Proc19 D1 C1 B1 A1 Z R L))
                      (not (Proc20 D1 C1 B1 A1 Z R K))
                      (not (Proc17 D1 C1 B1 A1 Z R J))
                      a!7))))
    (=> a!8 (Proc11 D1 C1 B1 A1 Z R C B)))))))
(assert (forall ((A Int) (B Int) (C Int) (D Int) (E Int) (R Bool))
  (=> R (Proc27 E D C B A R))))
(assert (forall ((A Int) (B Int) (C Int) (D Int) (E Int) (F Int) (G Int) (R Bool))
  (=> R (Proc28 G F E D C R B A))))
(assert (forall ((A Int) (B Int) (C Int) (D Int) (E Int) (R Bool))
  (=> R (Proc34 E D C B A R))))
(assert (forall ((A Int) (B Int) (C Int) (D Int) (E Int) (R Bool))
  (=> R (Proc31 E D C B A R))))
(assert (forall ((A Int) (B Int) (C Int) (D Int) (E Int) (R Bool))
  (=> R (Proc32 E D C B A R))))
(assert (forall ((A Int)
         (B Int)
         (C Int)
         (D Int)
         (E Int)
         (F Int)
         (G Int)
         (H Int)
         (I Int)
         (J Int)
         (K Int)
         (L Int)
         (M Int)
         (N Int)
         (O Int)
         (P Int)
         (Q Int)
         (R Bool)
         (U Int)
         (V Int)
         (W Int)
         (X Int)
         (Z Int)
         (A1 Int)
         (B1 Int)
         (C1 Int)
         (D1 Int)
         (E1 Int)
         (F1 Int)
         (G1 Int)
         (H1 Int)
         (I1 Int)
         (J1 Int)
         (K1 Int)
         (L1 Int)
         (M1 Int)
         (N1 Int)
         (O1 Int)
         (P1 Int)
         (Q1 Int)
         (R1 Int)
         (S1 Int)
         (T1 Int)
         (U1 Int)
         (V1 Int)
         (W1 Int)
         (X1 Int)
         (Y1 Int)
         (Z1 Int)
         (A2 Int)
         (B2 Int)
         (C2 Int)
         (D2 Int)
         (E2 Int)
         (F2 Int)
         (G2 Int)
         (H2 Int)
         (I2 Int)
         (J2 Int)
         (K2 Int))
  (let ((a!1 (and (= K2 J2) (not (<= I2 (+ 240 K2)))))
        (a!2 (and (not (<= I2 J2))
                  (= H2 I2)
                  (not (<= G2 (+ 4 H2)))
                  (not (<= G2 I2))))
        (a!3 (and (= F2 G2)
                  (not (<= E2 (+ 332 F2)))
                  (not (<= E2 G2))
                  (= D2 E2)
                  (not (<= C2 (+ 4 D2)))
                  (not (<= C2 E2))
                  (= B2 C2)
                  (not (<= A2 (+ 536 B2)))))
        (a!4 (and (not (<= A2 C2))
                  (= Z1 A2)
                  (not (<= Y1 (+ 240 Z1)))
                  (not (<= Y1 A2))
                  (= X1 Y1)
                  (not (<= W1 (+ 240 X1)))
                  (not (<= W1 Y1))
                  (= V1 W1)
                  (not (<= U1 (+ 536 V1)))
                  (not (<= U1 W1))
                  (= T1 U1)
                  (not (<= S1 (+ 240 T1)))
                  (not (<= S1 U1))
                  (= R1 S1)
                  (not (<= Q1 (+ 4 R1)))
                  (not (<= Q1 S1))
                  (= P1 Q1)
                  (not (<= O1 (+ 536 P1)))
                  (not (<= O1 Q1))
                  (= N1 O1)
                  (not (<= M1 (+ 332 N1)))
                  (not (<= M1 O1))
                  (= L1 M1)
                  (not (<= K1 (+ 240 L1)))
                  (not (<= K1 M1))
                  (= J1 K1)
                  (not (<= I1 (+ 240 J1)))
                  (not (<= I1 K1))
                  (= H1 I1)
                  (not (<= G1 (+ 332 H1)))
                  (not (<= G1 I1))
                  (= F1 G1)
                  (not (<= E1 (+ 4 F1)))
                  (not (<= E1 G1))
                  (= D1 E1)
                  (not (<= C1 (+ 536 D1)))
                  (not (<= C1 E1))
                  (= B1 C1)
                  (not (<= A1 (+ 240 B1)))
                  (not (<= A1 C1))
                  (= Z A1)
                  (not (<= X (+ 240 Z)))
                  (not (<= X A1))
                  (= W X)
                  (not (<= V (+ 240 W)))
                  (not (<= V X))
                  (= U V)
                  (not (<= Q (+ 240 U)))
                  (not (<= Q V))
                  (= P Q)
                  (not (<= O (+ 240 P)))
                  (not (<= O Q))
                  (= N O)
                  (not (<= M (+ 40 N)))
                  (not (<= M O))
                  (= L M)
                  (not (<= K (+ 332 L)))
                  (not (<= K M))
                  (= J K)
                  (not (<= I (+ 4 J)))
                  (not (<= I K))
                  (= H I)
                  (not (<= G (+ 40 H)))
                  (not (<= G I)))))
  (let ((a!5 (or (not R)
                 (not a!1)
                 (not a!2)
                 (not a!3)
                 (not a!4)
                 (not (and (= F G) (= E P))))))
    (=> (not a!5) (Proc10 J2 D C B A R F E))))))
(assert (forall ((A Int)
         (B Int)
         (C Int)
         (D Int)
         (E Int)
         (F Int)
         (G Int)
         (H Int)
         (I Int)
         (J Int)
         (K Int)
         (L Int)
         (M Int)
         (N Int)
         (O Int)
         (P Int)
         (Q Int)
         (R Bool)
         (S Bool)
         (T Bool))
  (let ((a!1 (or (not T)
                 (not (and (Proc12 Q P O N M true L K J I S H G) (not S))))))
    (=> (not a!1) (Proc35 Q P O N M T F R E D C B A)))))
(assert (let ((a!1 (exists ((V0 Int)
                    (V1 Int)
                    (V2 Int)
                    (V3 Int)
                    (V4 Int)
                    (V5 Bool)
                    (V6 Int)
                    (V7 Bool)
                    (V8 Int)
                    (V9 Int)
                    (V10 Int)
                    (V11 Int)
                    (V12 Int))
             (not (=> (and (Proc35 V0 V1 V2 V3 V4 V5 V6 V7 V8 V9 V10 V11 V12)
                           (not false))
                      false)))))
  (not a!1)))

(check-sat)
